c ren 1 -> 1
c ren 2 -> 2
c ren 3 -> 3
c ren 4 -> 4
c ren 5 -> 5
c ren 6 -> 6
c ren 7 -> 7
c ren 8 -> 8
c ren 9 -> 9
c ren 10 -> 10
c ren 11 -> 11
c ren 12 -> 12
c ren 13 -> 13
c ren 14 -> 14
c ren 15 -> 15
c ren 16 -> 16
c ren 17 -> 17
c ren 18 -> 18
c ren 19 -> 19
c ren 20 -> 20
c ren 21 -> 21
c ren 22 -> 22
c ren 23 -> 23
c ren 24 -> 24
c ren 25 -> 25
c ren 26 -> 26
c ren 27 -> 27
c ren 28 -> 28
c ren 29 -> 29
c ren 30 -> 30
c ren 31 -> 31
c ren 32 -> 32
c ren 33 -> 33
c ren 34 -> 34
c ren 35 -> 35
c ren 36 -> 36
c ren 37 -> 37
c ren 38 -> 38
c ren 39 -> 39
c ren 40 -> 40
c ren 41 -> 41
c ren 42 -> 42
c ren 43 -> 43
c ren 44 -> 44
c ren 45 -> 45
c ren 46 -> 46
c ren 47 -> 47
c ren 48 -> 48
c ren 49 -> 49
c ren 50 -> 50
c ren 51 -> 51
c ren 52 -> 52
c ren 53 -> 53
c ren 54 -> 54
c ren 55 -> 55
c ren 56 -> 56
c ren 57 -> 57
c ren 58 -> 58
c ren 59 -> 59
c ren 60 -> 60
c ren 61 -> 61
c ren 62 -> 62
c ren 63 -> 63
c ren 64 -> 64
c ren 65 -> 65
c ren 66 -> 66
c ren 67 -> 67
c ren 68 -> 68
c ren 69 -> 69
c ren 70 -> 70
c ren 71 -> 71
c ren 72 -> 72
c ren 73 -> 73
c ren 74 -> 74
c ren 75 -> 75
c ren 76 -> 76
c ren 77 -> 77
c ren 80 -> 78
c ren 83 -> 79
c ren 96 -> 80
c ren 105 -> 81
c ren 114 -> 82
c ren 117 -> 83
c ren 120 -> 84
c ren 133 -> 85
c ren 142 -> 86
c ren 151 -> 87
c ren 158 -> 88
c ren 159 -> 89
c ren 161 -> 90
c ren 170 -> 91
c ren 179 -> 92
c ren 188 -> 93
c ren 196 -> 94
c ren 197 -> 95
c ren 199 -> 96
c ren 208 -> 97
c ren 211 -> 98
c ren 214 -> 99
c ren 227 -> 100
c ren 232 -> 101
c ren 235 -> 102
c ren 239 -> 103
c ren 248 -> 104
c ren 257 -> 105
c ren 266 -> 106
c ren 270 -> 107
c ren 273 -> 108
c ren 277 -> 109
c ren 286 -> 110
c ren 290 -> 111
c ren 293 -> 112
c ren 306 -> 113
c ren 322 -> 114
c ren 341 -> 115
c ren 360 -> 116
c ren 379 -> 117
c ren 416 -> 118
c ren 435 -> 119
c ren 454 -> 120
c ren 473 -> 121
c ren 546 -> 122
c ren 564 -> 123
c ren 584 -> 124
c ren 623 -> 125
c ren 642 -> 126
c ren 661 -> 127
c ren 680 -> 128
c ren 898 -> 129
c ren 899 -> 130
c ren 900 -> 131
c ren 901 -> 132
c ren 902 -> 133
c ren 903 -> 134
c ren 904 -> 135
c ren 905 -> 136
c ren 906 -> 137
c ren 907 -> 138
c ren 908 -> 139
c ren 909 -> 140
c ren 910 -> 141
c ren 911 -> 142
c ren 912 -> 143
c ren 913 -> 144
c ren 916 -> 145
c ren 917 -> 146
c ren 920 -> 147
c ren 921 -> 148
c ren 924 -> 149
c ren 925 -> 150
p cnf 150 993
a 1 2 3 4 5 6 7 8 9 10 11 12 13 14 15 16 17 18 19 20 21 22 23 24 25 26 27 28 29 30 31 32 33 34 35 36 37 38 39 40 41 42 43 44 45 46 47 48 49 50 51 52 53 54 55 56 57 58 59 60 61 62 63 64 65 66 67 68 69 70 0
d 71 42 43 44 45 46 0
d 72 47 48 49 50 0
d 73 51 52 0
d 74 53 54 0
d 75 55 56 57 58 59 60 61 62 63 64 65 66 67 68 69 70 0
d 76 42 43 44 45 46 47 48 49 50 51 52 53 54 55 56 57 58 59 60 61 62 63 64 65 66 67 68 69 70 0
d 77 42 43 44 45 46 47 48 49 50 51 52 53 54 55 56 57 58 59 60 61 62 63 64 65 66 67 68 69 70 0
e 78 79 80 81 82 83 84 85 86 87 88 89 90 91 92 93 94 95 96 97 98 99 100 101 102 103 104 105 106 107 108 109 110 111 112 113 114 115 116 117 118 119 120 121 122 123 124 125 126 127 128 129 130 131 132 133 134 135 136 137 138 139 140 141 142 143 144 145 146 147 148 149 150 0
1 5 -78 0
1 -5 78 0
-71 -74 -125 0
-71 -74 -128 0
-1 5 78 0
-72 -74 -126 0
-1 -5 -78 0
-71 -74 -126 0
-71 72 73 74 -87 -100 123 124 126 0
9 13 -79 0
9 -13 79 0
-9 13 79 0
-9 -13 -79 0
33 -78 -79 80 -81 82 0
33 -78 -79 -80 -81 -82 0
-72 -73 -127 0
41 78 79 -80 -81 -82 0
33 78 -79 -80 -81 82 0
41 78 79 80 -81 82 0
33 78 -79 -80 81 -82 0
41 -78 -79 80 -81 82 0
41 78 -79 -80 -81 82 0
-17 -18 19 -20 80 0
17 -18 -19 20 -80 0
-17 -18 19 20 -80 0
-17 18 -19 20 -80 0
17 -18 -19 -20 80 0
17 18 -19 20 80 0
17 18 19 20 -80 0
17 18 -19 -20 -80 0
17 -18 19 -20 -80 0
17 18 19 -20 80 0
-17 18 19 -20 -80 0
-17 -18 -19 -20 -80 0
-17 -18 -19 20 80 0
17 -18 19 20 80 0
-17 18 -19 -20 80 0
-21 -22 23 -24 81 0
21 -22 -23 24 -81 0
-21 -22 23 24 -81 0
-21 22 -23 24 -81 0
21 -22 -23 -24 81 0
21 22 -23 24 81 0
21 22 23 24 -81 0
21 22 -23 -24 -81 0
21 -22 23 -24 -81 0
21 22 23 -24 81 0
-21 22 23 -24 -81 0
-21 -22 -23 -24 -81 0
-21 -22 -23 24 81 0
21 -22 23 24 81 0
-21 22 -23 -24 81 0
33 -78 79 -80 -81 82 0
-33 -41 -78 79 80 -81 82 0
41 -78 -79 -80 81 82 0
-33 -41 -78 79 -80 81 82 0
46 80 81 -134 0
33 45 -133 0
-46 80 -81 -134 0
33 78 79 -80 81 82 0
-46 -80 81 -134 0
-33 -41 -78 79 80 81 -82 0
41 78 -79 -80 81 -82 0
-33 -41 78 -79 -80 -81 -82 0
33 -78 79 -80 81 -82 0
33 78 -79 80 -81 -82 0
-33 -41 78 79 80 -81 -82 0
41 -78 79 -80 81 -82 0
-33 -41 -78 -79 80 -81 -82 0
33 -78 79 80 -81 -82 0
41 -78 79 80 -81 -82 0
17 21 -83 0
17 -21 83 0
33 78 -79 80 81 82 0
-17 21 83 0
-17 -21 -83 0
-33 -41 78 -79 80 81 -82 0
25 29 -84 0
25 -29 84 0
-33 -41 78 79 80 81 82 0
-25 29 84 0
-25 -29 -84 0
41 -78 -79 80 81 -82 0
-37 -41 -83 -84 85 -86 -87 0
-37 -41 83 -84 -85 86 87 0
-37 -41 -83 -84 85 86 87 0
-37 -41 -83 84 -85 86 87 0
-37 -41 83 -84 -85 -86 -87 0
37 -83 -84 -85 86 87 0
37 83 -84 85 86 87 0
-37 -41 83 -84 85 86 -87 0
-1 -2 3 -4 85 0
1 -2 -3 4 -85 0
-1 -2 3 4 -85 0
-1 2 -3 4 -85 0
1 -2 -3 -4 85 0
1 2 -3 4 85 0
1 2 3 4 -85 0
1 2 -3 -4 -85 0
1 -2 3 -4 -85 0
1 2 3 -4 85 0
-1 2 3 -4 -85 0
-1 -2 -3 -4 -85 0
-1 -2 -3 4 85 0
1 -2 3 4 85 0
37 -83 84 -85 -86 87 0
-37 -41 -83 84 85 -86 87 0
-1 2 -3 -4 85 0
37 -83 84 85 -86 -87 0
-5 -6 7 -8 86 0
5 -6 -7 8 -86 0
-5 -6 7 8 -86 0
-5 6 -7 8 -86 0
5 -6 -7 -8 86 0
5 6 -7 8 86 0
5 6 7 8 -86 0
5 6 -7 -8 -86 0
5 -6 7 -8 -86 0
5 6 7 -8 86 0
-5 6 7 -8 -86 0
-5 -6 -7 -8 -86 0
-5 -6 -7 8 86 0
5 -6 7 8 86 0
41 83 84 85 -86 87 0
41 -83 84 85 86 87 0
-5 6 -7 -8 86 0
41 83 84 -85 86 87 0
37 83 -84 -85 -86 87 0
41 83 -84 85 -86 -87 0
-37 -41 83 84 -85 86 -87 0
41 -83 -84 -85 -86 -87 0
37 -83 -84 -85 -86 -87 0
41 -83 -84 -85 86 87 0
37 -83 -84 85 -86 87 0
37 83 -84 85 -86 -87 0
41 -83 -84 85 86 -87 0
-37 -41 83 84 85 -86 -87 0
41 83 -84 -85 86 -87 0
41 83 -84 -85 -86 87 0
37 -83 -84 85 86 -87 0
41 -83 -84 85 -86 87 0
41 83 -84 85 86 87 0
-18 -22 -26 30 88 0
18 -22 -88 0
18 22 -89 0
-18 22 -88 0
18 -22 26 30 89 0
18 22 -26 30 88 0
-18 22 -26 -30 89 0
18 -22 -26 -30 89 0
-18 22 26 30 89 0
-26 -30 -88 0
-18 -22 -89 0
18 22 26 -30 88 0
26 30 -88 0
88 89 -90 -92 -122 123 0
-89 -90 92 122 -123 0
38 -90 0
41 -90 0
-9 -10 -11 12 91 0
9 -10 -11 -122 0
-9 -10 11 -12 -122 0
-9 10 -11 -122 0
-36 -41 81 105 -111 -112 113 0
9 -10 11 -12 -91 0
9 -10 11 12 91 0
-9 10 11 -12 122 0
-36 -41 81 105 111 -112 -113 0
-9 10 11 -12 -91 0
-9 -10 12 122 0
-9 10 -11 12 -91 0
-89 -90 -91 92 93 0
9 -10 -11 -12 91 0
9 -10 11 -12 122 0
-89 -90 -91 -92 -93 0
-89 -90 91 -92 93 0
9 10 11 -12 -122 0
-89 -90 91 92 -93 0
-9 10 -11 -12 91 0
-89 90 91 -92 -93 0
-89 90 -91 -92 93 0
-13 -14 15 -16 92 0
13 -14 -15 16 -92 0
-13 -14 15 16 -92 0
-13 14 -15 16 -92 0
13 -14 -15 -16 92 0
13 14 -15 16 92 0
13 14 15 16 -92 0
13 14 -15 -16 -92 0
13 -14 15 -16 -92 0
13 14 15 -16 92 0
-13 14 15 -16 -92 0
-13 -14 -15 -16 -92 0
-13 -14 -15 16 92 0
13 -14 15 16 92 0
9 10 11 12 -91 0
-13 14 -15 -16 92 0
88 89 90 -91 -92 -93 0
88 89 -90 91 -92 -93 0
-33 -41 78 -79 80 -81 82 0
88 89 -90 91 92 93 0
88 89 -90 -91 92 -93 0
-89 90 91 92 93 0
-88 90 -91 -92 93 0
-88 -90 -92 122 123 0
88 89 90 91 -92 93 0
-88 -90 91 -92 93 0
88 89 -90 -91 -92 93 0
-33 -41 78 -79 -80 81 82 0
-88 -90 -91 -92 -93 0
-89 90 92 122 123 0
33 -78 -79 -80 81 82 0
-88 90 91 -92 -93 0
-88 90 91 92 93 0
41 78 79 -80 81 82 0
-88 -90 91 92 -93 0
88 89 90 91 92 -93 0
-33 -41 -78 79 -80 -81 -82 0
46 -80 -81 -134 0
-33 -41 -78 -79 -80 -81 82 0
-72 -74 -125 0
-88 -90 92 -122 123 0
33 -78 79 80 81 82 0
-72 -74 -128 0
-19 -23 -27 31 94 0
19 -23 -94 0
19 23 -95 0
-19 23 -94 0
19 -23 27 31 95 0
19 23 -27 31 94 0
-19 23 -27 -31 95 0
19 -23 -27 -31 95 0
-19 23 27 31 95 0
-27 -31 -94 0
-19 -23 -95 0
19 23 27 -31 94 0
27 31 -94 0
85 94 95 -96 122 124 0
-85 -95 -96 -122 -124 0
39 -96 0
41 -96 0
-85 -91 94 95 96 -97 0
85 -91 94 95 -96 -97 0
85 -91 -95 -96 97 0
85 91 94 95 -96 97 0
-85 91 94 95 -96 -97 0
-85 91 -95 -96 97 0
-85 -91 -94 96 97 0
85 -94 -96 -122 124 0
85 -91 94 95 96 97 0
85 -91 -94 -96 97 0
-85 -91 94 95 -96 97 0
-85 -91 -95 -96 -97 0
-85 -91 -94 -96 -97 0
-85 -95 96 -122 124 0
-85 -91 -95 96 97 0
85 -91 -94 96 -97 0
85 91 -94 96 97 0
85 91 -95 -96 -97 0
85 91 -94 -96 -97 0
85 91 94 95 96 -97 0
-72 -73 -125 0
-72 -73 -126 0
85 -91 -95 96 -97 0
-93 -100 -121 0
-85 -94 -96 122 124 0
85 91 -95 96 97 0
-93 -97 -119 0
20 24 -98 0
20 -24 98 0
-20 24 98 0
-20 -24 -98 0
28 32 -99 0
28 -32 99 0
-28 32 99 0
-28 -32 -99 0
-40 -41 86 -92 -98 -99 -100 0
-40 -41 -86 92 98 -99 100 0
-40 -41 86 92 -98 -99 100 0
-40 -41 -86 92 -98 99 100 0
-40 -41 -86 -92 98 -99 -100 0
40 -86 92 -98 -99 100 0
40 86 92 98 -99 100 0
-40 -41 86 92 98 -99 -100 0
40 -86 -92 98 -99 100 0
41 86 -92 98 -99 -100 0
-40 -41 -86 92 98 99 -100 0
41 -86 -92 -98 -99 -100 0
40 -86 -92 -98 -99 -100 0
41 -86 92 -98 -99 100 0
40 86 -92 -98 -99 100 0
40 86 -92 98 -99 -100 0
41 86 92 -98 -99 -100 0
-40 -41 86 -92 98 99 -100 0
41 -86 92 98 -99 -100 0
41 -86 -92 98 -99 100 0
40 86 92 -98 -99 -100 0
41 86 -92 -98 -99 100 0
40 -86 -92 -98 99 100 0
-40 -41 86 -92 -98 99 100 0
41 86 92 98 -99 100 0
40 86 -92 -98 99 -100 0
2 6 -101 0
2 -6 101 0
41 86 92 -98 99 100 0
-2 6 101 0
-2 -6 -101 0
41 -86 -92 -98 99 100 0
10 14 -102 0
10 -14 102 0
41 -86 92 98 99 100 0
-10 14 102 0
-10 -14 -102 0
40 86 92 98 99 -100 0
-101 -102 -103 -104 105 -106 0
101 -102 103 -104 105 -106 0
-101 -102 103 104 -105 106 0
34 -103 0
41 -103 0
-25 -26 27 -28 104 0
25 -26 -27 28 -104 0
-25 -26 27 28 -104 0
-25 26 -27 28 -104 0
25 -26 -27 -28 104 0
25 26 -27 28 104 0
25 26 27 28 -104 0
25 26 -27 -28 -104 0
25 -26 27 -28 -104 0
25 26 27 -28 104 0
-25 26 27 -28 -104 0
-25 -26 -27 -28 -104 0
-25 -26 -27 28 104 0
25 -26 27 28 104 0
101 102 -103 -104 -105 106 0
-25 26 -27 -28 104 0
-29 -30 31 -32 105 0
29 -30 -31 32 -105 0
-29 -30 31 32 -105 0
-29 30 -31 32 -105 0
29 -30 -31 -32 105 0
29 30 -31 32 105 0
29 30 31 32 -105 0
29 30 -31 -32 -105 0
29 -30 31 -32 -105 0
29 30 31 -32 105 0
-29 30 31 -32 -105 0
-29 -30 -31 -32 -105 0
-29 -30 -31 32 105 0
29 -30 31 32 105 0
-29 30 -31 -32 105 0
53 101 102 -141 0
-101 -102 -103 104 105 106 0
101 -102 103 -104 -105 106 0
-101 102 -103 -104 -105 -106 0
101 -102 -103 104 -105 106 0
-54 103 -104 105 -142 0
54 -103 104 -105 -142 0
54 103 -104 -105 -142 0
-101 102 -103 104 -105 106 0
-101 102 103 -104 -105 106 0
101 -102 -103 -104 -105 -106 0
-101 102 103 104 105 106 0
-93 -97 -118 0
101 -102 -103 104 105 -106 0
-101 102 103 -104 105 -106 0
-93 -97 -120 0
3 7 -107 0
3 -7 107 0
54 -103 -104 105 -142 0
-3 7 107 0
-3 -7 -107 0
-101 102 -103 -104 105 106 0
11 15 -108 0
11 -15 108 0
54 103 104 105 -142 0
-11 15 108 0
-11 -15 -108 0
-54 -103 -104 -105 -142 0
-80 104 -107 -108 -109 -110 0
-80 104 107 -108 109 -110 0
80 -104 -107 -108 109 110 0
35 -109 0
41 -109 0
51 107 108 -139 0
80 104 -107 -108 -109 110 0
-80 -104 107 -108 109 110 0
-80 -104 -107 108 -109 -110 0
80 -104 107 -108 -109 110 0
-52 -80 104 109 -140 0
52 80 -104 -109 -140 0
52 -80 -104 109 -140 0
80 -104 -107 108 -109 110 0
-80 -104 -107 108 109 110 0
-80 -104 107 -108 -109 -110 0
80 104 -107 108 109 110 0
-89 90 -92 -122 123 0
80 104 107 -108 -109 -110 0
-80 104 -107 108 109 -110 0
85 -95 96 122 124 0
4 8 -111 0
4 -8 111 0
52 -80 104 -109 -140 0
-4 8 111 0
-4 -8 -111 0
-80 104 -107 108 -109 110 0
12 16 -112 0
12 -16 112 0
52 80 104 109 -140 0
-12 16 112 0
-12 -16 -112 0
-52 -80 -104 -109 -140 0
36 81 -105 -111 -112 113 0
36 -81 -105 -111 -112 -113 0
80 -104 107 108 -109 -110 0
41 -81 -105 111 112 -113 0
36 -81 -105 111 -112 113 0
41 81 -105 111 112 113 0
36 -81 105 111 -112 -113 0
41 81 -105 -111 -112 113 0
41 -81 -105 111 -112 113 0
36 -81 -105 -111 112 113 0
-36 -41 81 -105 -111 112 113 0
41 -81 105 -111 -112 113 0
-36 -41 -81 105 -111 112 113 0
50 81 105 -138 0
36 49 -137 0
-50 81 -105 -138 0
36 -81 105 111 112 113 0
-50 -81 105 -138 0
-36 -41 81 105 -111 112 -113 0
41 -81 105 111 -112 -113 0
-36 -41 -81 -105 111 -112 -113 0
36 -81 105 -111 112 -113 0
36 81 -105 111 -112 -113 0
-36 -41 81 -105 111 112 -113 0
41 -81 105 -111 112 -113 0
-36 -41 81 -105 -111 -112 -113 0
36 81 -105 -111 112 -113 0
41 81 -105 -111 112 -113 0
-82 -113 -117 0
82 -87 93 -97 100 106 110 -113 114 0
82 87 -93 97 -100 106 110 -113 117 0
82 87 -93 -97 100 106 110 -113 116 0
-82 -110 -114 0
82 -87 93 -97 100 106 -110 113 114 0
82 87 -93 97 -100 106 -110 113 117 0
82 87 -93 -97 100 106 -110 113 116 0
-82 -106 -114 0
82 -87 93 -97 100 -106 110 113 114 0
82 87 -93 97 -100 -106 110 113 117 0
82 87 -93 -97 100 -106 110 113 116 0
-106 -110 -117 0
-82 -87 93 -97 100 106 110 113 114 0
-82 87 -93 97 -100 106 110 113 117 0
-82 87 -93 -97 100 106 110 113 116 0
-82 -113 -116 0
-110 -113 -116 0
-110 -113 -117 0
-110 -113 -115 0
82 -87 93 97 -100 -106 110 113 115 0
87 -114 0
-93 -114 0
97 -114 0
-100 -114 0
-82 -113 -114 0
82 -87 93 97 -100 106 -110 113 115 0
-71 82 -125 -129 0
75 -87 -118 -129 0
74 -87 -120 -129 0
-82 -106 -115 0
-74 106 -125 -129 0
75 -93 -120 -129 0
-36 -41 81 105 111 112 113 0
80 104 107 108 109 -110 0
75 -97 -120 -129 0
-73 110 -125 -129 0
-113 -114 125 -129 0
75 -97 -118 -129 0
-72 113 -125 -129 0
87 -115 0
-93 -115 0
-97 -115 0
100 -115 0
-82 -113 -115 0
-82 -110 -115 0
-71 82 -126 -129 0
-82 -115 126 -129 0
71 -82 -115 -129 0
-74 106 -126 -129 0
75 -87 -120 -129 0
-73 110 -126 -129 0
75 -93 -118 -129 0
-73 -74 -127 0
-93 -100 -120 0
-72 113 -126 -129 0
-87 -116 0
93 -116 0
97 -116 0
-100 -116 0
82 -87 93 97 -100 106 110 -113 115 0
-82 -110 -117 0
-93 -100 -119 0
-71 82 -127 -129 0
74 -106 -116 -129 0
-74 106 -127 -129 0
-73 110 -127 -129 0
-72 113 -127 -129 0
-113 -116 127 -129 0
-74 -93 -118 -129 0
-87 -117 0
93 -117 0
-97 -117 0
100 -117 0
-110 -113 -114 0
-82 -110 -116 0
-74 -97 -118 -129 0
-71 82 -128 -129 0
-74 106 -128 -129 0
-74 -87 -118 -129 0
-110 -117 128 -129 0
73 -110 -117 -129 0
-73 110 -128 -129 0
-113 -117 128 -129 0
75 -100 -120 -129 0
-72 113 -128 -129 0
-87 -100 -120 0
-82 87 93 97 -100 106 -110 113 118 0
82 87 93 97 -100 -106 110 -113 121 0
82 87 93 97 -100 -106 -110 113 120 0
-87 -97 -119 0
-82 87 93 -97 100 106 -110 113 118 0
82 87 93 -97 100 -106 110 -113 121 0
82 87 93 -97 100 -106 -110 113 120 0
-87 -93 -118 0
-82 87 -93 97 100 106 -110 113 118 0
82 87 -93 97 100 -106 110 -113 121 0
82 87 -93 97 100 -106 -110 113 120 0
-93 -97 -121 0
-82 -87 93 97 100 106 -110 113 118 0
82 -87 93 97 100 -106 110 -113 121 0
82 -87 93 97 100 -106 -110 113 120 0
-106 -110 -115 0
-87 -100 -119 0
-97 -100 -118 0
-97 -100 -121 0
-97 -100 -120 0
-82 87 -93 97 100 106 110 -113 119 0
82 -118 0
-106 -118 0
110 -118 0
-113 -118 0
-87 -100 -118 0
-82 87 93 -97 100 106 110 -113 119 0
-87 -93 -119 0
-72 -100 -118 -129 0
-106 -113 -114 0
-87 -93 -120 0
71 -87 -118 -129 0
87 93 97 100 -121 0
-82 -87 93 97 100 106 110 -113 119 0
87 93 97 100 -120 0
-74 -100 -118 -129 0
71 -97 -118 -129 0
71 -100 -118 -129 0
71 -93 -118 -129 0
73 -93 -118 -129 0
82 -119 0
-106 -119 0
-110 -119 0
113 -119 0
-87 -100 -121 0
-87 -97 -120 0
-76 -87 119 -129 0
76 -87 -119 -129 0
-76 93 -123 -129 0
-76 97 -124 -129 0
-77 119 -129 0
-77 100 -129 0
77 -100 -119 -129 0
-82 -120 0
106 -120 0
110 -120 0
-113 -120 0
-82 87 93 97 -100 106 110 -113 119 0
-87 -97 -121 0
-72 -93 -120 -129 0
-71 -93 -120 -129 0
-71 -87 -120 -129 0
-72 -87 -120 -129 0
-71 -97 -120 -129 0
73 -97 -120 -129 0
-71 -100 -120 -129 0
-82 -121 0
106 -121 0
-110 -121 0
113 -121 0
-97 -100 -119 0
-87 -97 -118 0
71 -72 73 -74 -75 -100 121 -129 0
72 -87 -121 -129 0
71 -72 73 -74 -75 121 -123 -129 0
72 -93 -121 -129 0
-93 -121 123 -129 0
-71 -87 -121 -129 0
72 -97 -121 -129 0
-97 -121 124 -129 0
72 -100 -121 -129 0
75 -100 -121 -129 0
-71 -97 -121 -129 0
41 78 -79 80 81 82 0
33 -78 -79 80 81 -82 0
-33 -41 -78 -79 80 81 82 0
33 78 79 80 81 -82 0
41 78 79 80 81 -82 0
37 83 84 -85 86 87 0
-37 -41 -83 84 85 86 -87 0
-37 -41 83 84 -85 -86 87 0
-37 -41 83 84 85 86 87 0
-37 -41 -83 -84 -85 86 -87 0
-1 2 3 4 85 0
-37 -41 -83 84 -85 -86 -87 0
-37 -41 83 -84 85 -86 87 0
37 -83 84 -85 86 -87 0
37 -83 84 85 86 87 0
41 -83 84 85 -86 -87 0
41 -83 84 -85 86 -87 0
-37 -41 -83 -84 -85 -86 87 0
41 -83 84 -85 -86 87 0
-5 6 7 8 86 0
37 83 84 85 -86 87 0
37 83 84 -85 -86 -87 0
37 83 84 85 86 -87 0
41 83 84 -85 -86 -87 0
41 83 84 85 86 -87 0
37 83 -84 -85 86 -87 0
-18 -22 26 -30 88 0
-26 30 -89 0
26 -30 -89 0
-89 90 -91 92 -93 0
-38 -41 90 0
9 10 -11 -12 -91 0
36 81 105 111 -112 113 0
41 81 105 -111 -112 -113 0
36 81 105 -111 -112 -113 0
-9 -10 11 -12 91 0
-9 -10 -11 -12 -91 0
-9 -10 -11 122 0
9 -10 -11 12 -91 0
41 81 105 111 -112 113 0
9 10 -11 12 91 0
-9 10 12 -122 0
9 10 -11 122 0
9 10 11 -12 91 0
-9 10 11 12 91 0
-9 -10 11 12 -91 0
9 -10 12 -122 0
9 10 12 122 0
-13 14 15 16 92 0
88 89 -90 92 122 123 0
88 89 90 -92 122 123 0
41 81 105 111 112 -113 0
88 89 90 92 122 -123 0
88 89 90 92 -122 123 0
-88 90 -92 -122 123 0
-89 90 -92 122 -123 0
-88 90 92 122 123 0
88 89 -90 92 -122 -123 0
-88 90 92 -122 -123 0
88 89 -90 -92 122 -123 0
-88 -90 92 122 -123 0
-88 -90 -92 -122 -123 0
-89 -90 -92 -122 -123 0
-89 -90 92 -122 123 0
-89 -90 -92 122 123 0
88 89 90 -92 -122 -123 0
-89 90 92 -122 -123 0
88 89 90 -91 92 93 0
-88 90 -92 122 -123 0
-88 90 -91 92 -93 0
82 106 110 113 -114 0
-88 -90 -91 92 93 0
-19 -23 27 -31 94 0
-27 31 -95 0
27 -31 -95 0
-85 91 -95 96 -97 0
-39 -41 96 0
-85 94 95 -96 -122 124 0
85 94 95 96 -122 124 0
36 81 105 111 112 -113 0
-85 94 95 96 -122 -124 0
-85 94 95 96 122 124 0
85 -94 96 122 124 0
85 -95 96 -122 -124 0
-85 -94 96 -122 124 0
-85 94 95 -96 122 -124 0
-85 -94 96 122 -124 0
85 94 95 -96 -122 -124 0
-85 -94 -96 -122 -124 0
85 -94 -96 122 -124 0
85 -95 -96 122 -124 0
-85 -95 -96 122 124 0
85 -95 -96 -122 124 0
85 94 95 96 122 -124 0
-85 -95 96 122 -124 0
-85 91 94 95 96 97 0
85 -94 96 -122 -124 0
82 106 110 113 -116 0
82 106 110 113 -117 0
-85 91 -94 96 -97 0
-36 -41 81 -105 111 -112 113 0
-85 91 -94 -96 97 0
82 106 110 113 -115 0
-36 -41 -81 -105 -111 -112 113 0
40 -86 92 98 99 100 0
-40 -41 86 92 -98 99 -100 0
-40 -41 -86 -92 98 99 100 0
-40 -41 86 92 98 99 100 0
-40 -41 -86 92 -98 -99 -100 0
40 -86 92 98 -99 -100 0
-40 -41 -86 -92 -98 99 -100 0
-40 -41 86 -92 98 -99 100 0
40 -86 92 -98 99 -100 0
40 86 92 -98 99 100 0
41 86 -92 -98 99 -100 0
41 -86 92 -98 99 -100 0
-71 -72 -125 0
71 -72 73 74 -87 100 123 -124 125 0
71 -72 73 74 87 -100 -123 124 128 0
71 -72 73 74 87 100 -123 -124 127 0
-71 -73 -128 0
71 72 -73 74 -87 100 123 -124 125 0
71 72 -73 74 87 -100 -123 124 128 0
71 72 -73 74 87 100 -123 -124 127 0
-71 -74 -127 0
71 72 73 -74 -87 100 123 -124 125 0
71 72 73 -74 87 -100 -123 124 128 0
71 72 73 -74 87 100 -123 -124 127 0
-73 -74 -126 0
-72 -74 -127 0
-71 72 73 74 -87 100 123 -124 125 0
-71 72 73 74 87 -100 -123 124 128 0
-71 72 73 74 87 100 -123 -124 127 0
-72 -73 -128 0
-71 -72 -126 0
71 72 73 74 -128 0
71 72 73 74 -127 0
71 72 73 74 -126 0
71 72 73 -74 -87 -100 123 124 126 0
87 -125 0
-123 -125 0
124 -125 0
-100 -125 0
-71 -72 -127 0
71 72 -73 74 -87 -100 123 124 126 0
71 -82 -114 -129 0
36 -81 105 -111 -112 113 0
-82 -106 -116 0
-82 -106 -117 0
41 -81 105 111 112 113 0
-71 114 -125 -129 0
-82 -114 125 -129 0
36 81 105 -111 112 113 0
80 104 107 108 -109 110 0
74 -106 -114 -129 0
-36 -41 -81 -105 -111 112 -113 0
50 -81 -105 -138 0
-74 114 -125 -129 0
-106 -114 125 -129 0
73 -110 -114 -129 0
-73 114 -125 -129 0
-110 -114 125 -129 0
72 -113 -114 -129 0
-72 114 -125 -129 0
87 -126 0
-123 -126 0
-124 -126 0
100 -126 0
-71 -72 -128 0
-71 -73 -127 0
-71 115 -126 -129 0
74 -106 -115 -129 0
-74 115 -126 -129 0
-106 -115 126 -129 0
73 -110 -115 -129 0
-73 115 -126 -129 0
-110 -115 126 -129 0
-72 115 -126 -129 0
72 -113 -115 -129 0
-113 -115 126 -129 0
-87 -127 0
123 -127 0
124 -127 0
-100 -127 0
71 -72 73 74 -87 -100 123 124 126 0
-71 -73 -126 0
71 -82 -116 -129 0
-71 116 -127 -129 0
-82 -116 127 -129 0
-74 116 -127 -129 0
-106 -116 127 -129 0
73 -110 -116 -129 0
-73 116 -127 -129 0
-110 -116 127 -129 0
72 -113 -116 -129 0
-72 116 -127 -129 0
73 -100 -118 -129 0
-87 -128 0
123 -128 0
-124 -128 0
100 -128 0
71 72 73 74 -125 0
-71 -73 -125 0
-71 117 -128 -129 0
71 -82 -117 -129 0
-82 -117 128 -129 0
74 -106 -117 -129 0
-74 117 -128 -129 0
-106 -117 128 -129 0
-73 117 -128 -129 0
-72 117 -128 -129 0
72 -113 -117 -129 0
-72 -93 -118 -129 0
-71 72 -73 74 -75 118 -123 -129 0
-71 72 -73 74 -75 118 -124 -129 0
-71 72 -73 74 -75 -100 118 -129 0
-71 72 -73 74 -75 93 -123 -129 0
73 -97 -118 -129 0
-106 -110 -114 0
-106 -113 -116 0
87 93 97 100 -119 0
-106 -110 -116 0
-106 -113 -117 0
-106 -113 -115 0
-93 -118 123 -129 0
-71 72 -73 74 -75 -87 118 -129 0
-72 -97 -118 -129 0
74 -100 -120 -129 0
-97 -118 124 -129 0
-71 72 -73 74 -75 97 -124 -129 0
-72 -87 -118 -129 0
-76 119 -123 -129 0
76 -93 -119 -129 0
-93 -119 123 -129 0
74 -93 -120 -129 0
76 -97 -119 -129 0
-76 119 -124 -129 0
-97 -119 124 -129 0
-72 -97 -120 -129 0
71 72 -73 -74 -75 120 -123 -129 0
71 72 -73 -74 -75 120 -124 -129 0
71 72 -73 -74 -75 97 -124 -129 0
71 72 -73 -74 -75 93 -123 -129 0
73 -87 -120 -129 0
-93 -120 123 -129 0
71 72 -73 -74 -75 -87 120 -129 0
-72 -100 -120 -129 0
-97 -120 124 -129 0
71 72 -73 -74 -75 -100 120 -129 0
75 -100 -118 -129 0
71 -72 73 -74 -75 93 -123 -129 0
71 -72 73 -74 -75 121 -124 -129 0
71 -72 73 -74 -75 -87 121 -129 0
71 -72 73 -74 -75 97 -124 -129 0
-73 -87 -121 -129 0
-71 -93 -121 -129 0
-73 -74 -128 0
-93 -100 -118 0
74 -97 -120 -129 0
-73 -74 -125 0
73 -93 -120 -129 0
-71 -100 -121 -129 0
33 78 79 -80 -81 -82 0
-17 18 19 20 80 0
-21 22 23 24 81 0
41 -78 79 80 81 82 0
41 45 -133 0
-80 -104 -107 -108 109 -110 0
80 -104 -107 108 109 -110 0
80 -104 107 -108 109 -110 0
51 -107 -108 -139 0
-80 104 107 108 -109 -110 0
36 -81 -105 111 112 -113 0
-29 30 31 32 105 0
-80 -104 107 108 -109 110 0
41 81 105 -111 112 113 0
41 49 -137 0
-101 -102 103 -104 -105 -106 0
-101 102 103 104 -105 -106 0
101 -102 103 104 -105 -106 0
53 -101 -102 -141 0
101 102 -103 -104 105 -106 0
80 -104 107 108 109 110 0
-80 104 107 108 109 110 0
-35 -41 109 0
101 102 103 -104 -105 -106 0
101 102 -103 104 -105 -106 0
-25 26 27 28 104 0
101 102 -103 104 105 106 0
101 102 103 104 105 -106 0
-80 -104 107 108 109 -110 0
80 104 107 -108 109 110 0
-80 104 107 -108 -109 110 0
-52 80 -104 109 -140 0
-51 107 -108 -139 0
-40 -41 -86 -92 -98 -99 100 0
40 -86 -92 98 99 -100 0
40 86 -92 98 99 100 0
41 86 -92 98 99 100 0
41 86 92 98 99 -100 0
41 -86 -92 98 99 -100 0
101 102 103 104 -105 106 0
101 102 103 -104 105 106 0
-34 -41 103 0
101 -102 103 104 105 106 0
101 -102 -103 -104 105 106 0
-54 103 104 -105 -142 0
-53 101 -102 -141 0
-36 -41 -81 105 111 -112 113 0
-82 -87 93 97 -100 106 110 113 115 0
-101 -102 103 -104 105 106 0
-80 104 -107 -108 109 110 0
-87 -93 -121 0
87 93 97 100 -118 0
73 -87 -118 -129 0
73 -100 -120 -129 0
-1 -42 -130 0
1 42 -130 0
-5 -43 -131 0
5 43 -131 0
-44 -79 -132 0
44 79 -132 0
41 -78 -79 -80 -81 -82 0
-33 -41 -45 -133 0
-33 -41 78 79 -80 81 -82 0
-33 -41 78 79 -80 -81 82 0
-33 -41 -78 -79 -80 81 -82 0
33 78 79 80 -81 82 0
41 -78 79 -80 -81 82 0
41 78 -79 80 -81 -82 0
-47 -111 -135 0
47 111 -135 0
-48 -112 -136 0
48 112 -136 0
41 -81 -105 -111 -112 -113 0
-36 -41 -49 -137 0
-36 -41 -81 105 111 112 -113 0
-36 -41 -81 -105 111 112 113 0
-36 -41 -81 105 -111 -112 -113 0
36 81 -105 111 112 113 0
41 -81 -105 -111 112 113 0
41 81 -105 111 -112 -113 0
80 104 -107 -108 109 -110 0
-52 80 104 -109 -140 0
80 -104 -107 -108 -109 -110 0
-51 -107 108 -139 0
80 104 -107 108 -109 -110 0
-80 -104 -107 -108 -109 110 0
-101 -102 103 104 105 -106 0
-54 -103 104 105 -142 0
-101 -102 -103 104 -105 -106 0
-53 -101 102 -141 0
-101 102 -103 104 105 -106 0
-101 -102 -103 -104 -105 106 0
-55 87 -143 0
55 -87 -143 0
-56 123 -144 0
56 -123 -144 0
74 -87 -121 -129 0
75 -87 -121 -129 0
-59 87 -145 0
59 -87 -145 0
-60 123 -146 0
60 -123 -146 0
-73 -93 -121 -129 0
74 -93 -121 -129 0
-57 -58 61 62 -65 66 -69 70 -100 124 129 130 131 132 133 134 135 136 137 138 139 140 141 142 143 144 145 146 147 148 149 150 0
-73 -100 -121 -129 0
-63 87 -147 0
63 -87 -147 0
-64 -123 -148 0
64 123 -148 0
-57 58 61 -62 -65 -66 -69 -70 100 124 129 130 131 132 133 134 135 136 137 138 139 140 141 142 143 144 145 146 147 148 149 150 0
-73 -97 -121 -129 0
57 -58 -61 62 65 66 69 70 -100 -124 129 130 131 132 133 134 135 136 137 138 139 140 141 142 143 144 145 146 147 148 149 150 0
57 58 -61 -62 65 -66 69 -70 100 -124 129 130 131 132 133 134 135 136 137 138 139 140 141 142 143 144 145 146 147 148 149 150 0
-67 -87 -149 0
67 87 -149 0
-68 123 -150 0
68 -123 -150 0
74 -97 -121 -129 0
74 -100 -121 -129 0
75 -93 -121 -129 0
75 -97 -121 -129 0
